sat
(
(define-fun B () String "aaaaaaaaaaaaaaaaaaaaaaaaaaa")
(define-fun E () String "aaaaaaaaaaaaaaaaaaaaaaaaaaaaaaaaaaaaaaaaaaaaaaaaaaaaa")
(define-fun F () String "aaaaaaaaaaaa")
(define-fun A () String "aaaaaaaaaaaaaaaaaaaaaaaaaa")
(define-fun C () String "aaaaaaaaaaaaaaaaaaaaaaaaaaaaaaaaaaaaaaaaaaaaaaaaaaaaa")
(define-fun D () String "aaaaaaaa")
)
